Name: Name field capital case
MW: 0
CAS: 50-00-0
Formula: CHNO,H+
PrecursorMZ: 100.0000
Collision_energy: 35
Comments:
Num Peaks: 8
40.0000 1000.00000000000
60.000 700.000000000000
80.0000 800.000000000000
100.000 300.000000000000
110.0000 2000.00000000000
120.0000 800.000000000000
130.0000 10000
190.0000 6000.0000000000

NAME: Name field upper case
PrecursorMz: 200.00000
Precursor_type:
Collision_energy: 15.00,30.00,45.00
Ionization:
IonMode: negative
RetentionTime: 3.00000
InChiKey:
Formula: CHO
CASNo: 80-00-0
Smiles:
CompoundClass:
Comment:
Num peaks: 10
50.0000 200000.00
55.0000 200000.00
60.0000 1000000.00
65.0000 600000.00
80.0000 200000.00
90.0000 200000.00
95.0000 300000.00
100.0000 200000.00
120.0000 2000000.00
130.0000 200000.00

Name: Contains space
Num peaks: 0

Name: Contains_underscore
Num peaks: 0

Name: Contains-hyphen
Num peaks: 0

Name: Contains(parenthesis)
Num peaks: 0

Name: LoooooooooooooooooooooooooooooooooooooooooooooooooooooooooooooooooooooooooooooooooooooongName
Num peaks: 0

Name: Contains-αβ
Num peaks: 0

Name: Contains_'quatation'
Num peaks: 0

Name: Contains%percent
Num peaks: 0

Name: Contains;semi-colon
Num peaks: 0

Name: Contains:colon
Num peaks: 0

