Name: Xaaaaaaa,H+_1
MW: 0
CAS: 50-00-0
Formula: CHNO,H+
PrecursorMZ: 100.0000
Collision_energy: 35
Comments:
Num Peaks: 8
40.0000 1000.00000000000
60.000 700.000000000000
80.0000 800.000000000000
100.000 300.000000000000
110.0000 2000.00000000000
120.0000 800.000000000000
130.0000 10000
190.0000 6000.0000000000

Name: Xaaaaaaa,H+_1
MW: 0
CAS: 50-00-0
Formula: CHNO,H+
PrecursorMZ: 100.0000
Collision_energy: 35
Comments:
Num Peaks: 3
40.0000 1000.00000000000
100.000 300.000000000000
190.0000 6000.0000000000
